Route #1: 5 37 20 60 36 47 15 57
Route #2: 63 23 56 43 41 42 64 22
Route #3: 10 31 25 55 18 50 44
Route #4: 48 21 61 28 62 1
Route #5: 35 14 59 11 38
Route #6: 40 32 9 39 58
Route #7: 7 53 19 54 13 27 52
Route #8: 51 3 24 49 16 33 2
Route #9: 30 29 45 8 46 34
Route #10: 26 12 17 6 4
Cost 846.5772664216477